Gurobi 12.0.0:   lim:time = 14400
  mip:bestbound = 1
Set parameter LogToConsole to value 1
  tech:outlev = 1
Set parameter InfUnbdInfo to value 1
Gurobi Optimizer version 12.0.0 build v12.0.0rc1 (win64 - Windows 11.0 (26100.2))

CPU model: 11th Gen Intel(R) Core(TM) i7-11700 @ 2.50GHz, instruction set [SSE2|AVX|AVX2|AVX512]
Thread count: 8 physical cores, 16 logical processors, using up to 16 threads

Non-default parameters:
TimeLimit  14400
InfUnbdInfo  1

Optimize a model with 200 rows, 194 columns and 1030 nonzeros
Model fingerprint: 0x6df66e8a
Model has 1 quadratic objective term
Model has 4 quadratic constraints
Variable types: 21 continuous, 173 integer (0 binary)
Coefficient statistics:
  Matrix range     [1e+00, 1e+05]
  QMatrix range    [1e+00, 1e+00]
  QLMatrix range   [1e+00, 2e+01]
  Objective range  [2e+01, 1e+02]
  QObjective range [1e+00, 1e+00]
  Bounds range     [1e+00, 8e+01]
  RHS range        [1e+00, 1e+05]
  QRHS range       [1e+02, 1e+02]
Presolve removed 23 rows and 32 columns
Presolve time: 0.01s
Presolved: 257 rows, 226 columns, 1319 nonzeros
Variable types: 12 continuous, 214 integer (214 binary)
Found heuristic solution: objective 423.0100000

Root relaxation: objective 1.214799e+02, 32 iterations, 0.00 seconds (0.00 work units)

    Nodes    |    Current Node    |     Objective Bounds      |     Work
 Expl Unexpl |  Obj  Depth IntInf | Incumbent    BestBd   Gap | It/Node Time

     0     0  121.47987    0   16  423.01000  121.47987  71.3%     -    0s
H    0     0                     409.2400000  121.47987  70.3%     -    0s
H    0     0                     285.1300000  121.47987  57.4%     -    0s
H    0     0                     269.0600000  121.47987  54.9%     -    0s
     0     0  151.26685    0   20  269.06000  151.26685  43.8%     -    0s
     0     0  183.04000    0    6  269.06000  183.04000  32.0%     -    0s
     0     0  183.04000    0    6  269.06000  183.04000  32.0%     -    0s
     0     0  183.04000    0    6  269.06000  183.04000  32.0%     -    0s
H    0     0                     267.2900000  183.04000  31.5%     -    0s
H    0     0                     251.8300000  183.04000  27.3%     -    0s
     0     0  183.04000    0    6  251.83000  183.04000  27.3%     -    0s
     0     0  208.81601    0    6  251.83000  208.81601  17.1%     -    0s
     0     0  208.83822    0    6  251.83000  208.83822  17.1%     -    0s
     0     0  208.83822    0    6  251.83000  208.83822  17.1%     -    0s
H    0     0                     251.0800000  208.83822  16.8%     -    0s
     0     0  208.83822    0   16  251.08000  208.83822  16.8%     -    0s
     0     0  208.83822    0   20  251.08000  208.83822  16.8%     -    0s
     0     0  208.83822    0    6  251.08000  208.83822  16.8%     -    0s
     0     0  208.83822    0    6  251.08000  208.83822  16.8%     -    0s
     0     2  208.83822    0    6  251.08000  208.83822  16.8%     -    0s
*    9     7               3     241.8900000  208.83822  13.7%   6.1    0s

Cutting planes:
  Learned: 3
  Implied bound: 2
  MIR: 2

Explored 42 nodes (309 simplex iterations) in 0.13 seconds (0.06 work units)
Thread count was 16 (of 16 available processors)

Solution count 8: 241.89 251.08 251.83 ... 423.01

Optimal solution found (tolerance 1.00e-04)
Best objective 2.418900000000e+02, best bound 2.418900000000e+02, gap 0.0000%
-----RESULTS INFO-----
running_time:  0.281
TC.best_bound:  241.89
TC:  241.89
MIP Gap (%):  0
=== Vehicle Routes ===
Vehicle 1: 0 → 1
Vehicle 1: 1 → 5
Vehicle 1: 2 → 3
Vehicle 1: 3 → 6
Vehicle 1: 5 → 2
Vehicle 1: 6 → 14
Vehicle 2: 0 → 14

=== Full Vehicle Routes ===
Vehicle 1: 0 → 1 → 5 → 2 → 3 → 6 → 0 (65<100)
Vehicle 2: 0 → 0 (0<100)
Arc used by MRT line: y variables:
MRT used: 6 → 7
Customer assigment to PL: u variables:
4 7
Node is served by regular vehicle: g variables:
1
2
3
5
6
Customer assigment to Home delivery: gm variables:
1
2
3
5
Node total demands: ntd variables:
1 14 1
2 4 1
3 22 1
5 19 1
12 0 0
13 0 0
6 6 1
7 0 0
8 0 0
9 0 0
10 0 0
11 0 0
Customer's demand delivered to PL: l variables:
4
Lockers load <= capacity:
0 <= 98
0 <= 83
0 <= 86
6 <= 76
0 <= 71
0 <= 84
0 <= 94
0 <= 72
